40
1 0 4
2 0 2
2 1 5
3 0 4
3 1 1
3 2 2
4 0 4
4 1 4
4 2 3
4 3 2
5 0 3
5 1 1
5 2 3
5 3 5
5 4 4
6 0 3
6 1 7
6 2 8
6 3 1
6 4 4
6 5 5
7 0 6
7 1 4
7 2 8
7 3 3
7 4 4
7 5 3
7 6 1
8 0 6
8 1 7
8 2 5
8 3 7
8 4 1
8 5 1
8 6 1
8 7 3
9 0 5
9 1 3
9 2 4
9 3 6
9 4 7
9 5 2
9 6 1
9 7 4
9 8 2
10 0 7
10 1 3
10 2 3
10 3 6
10 4 4
10 5 2
10 6 7
10 7 5
10 8 4
10 9 6
11 0 7
11 1 7
11 2 6
11 3 5
11 4 4
11 5 4
11 6 6
11 7 1
11 8 6
11 9 5
11 10 2
12 0 1
12 1 5
12 2 2
12 3 3
12 4 8
12 5 7
12 6 4
12 7 8
12 8 7
12 9 2
12 10 2
12 11 6
13 0 5
13 1 2
13 2 2
13 3 7
13 4 2
13 5 2
13 6 1
13 7 3
13 8 3
13 9 4
13 10 2
13 11 8
13 12 5
14 0 6
14 1 4
14 2 8
14 3 3
14 4 3
14 5 4
14 6 1
14 7 8
14 8 5
14 9 2
14 10 4
14 11 6
14 12 7
14 13 8
15 0 8
15 1 1
15 2 7
15 3 1
15 4 6
15 5 5
15 6 6
15 7 3
15 8 7
15 9 3
15 10 5
15 11 4
15 12 8
15 13 3
15 14 5
16 0 8
16 1 7
16 2 6
16 3 3
16 4 2
16 5 1
16 6 5
16 7 1
16 8 5
16 9 6
16 10 3
16 11 3
16 12 6
16 13 6
16 14 2
16 15 8
17 0 1
17 1 4
17 2 2
17 3 8
17 4 4
17 5 3
17 6 5
17 7 1
17 8 3
17 9 6
17 10 4
17 11 2
17 12 3
17 13 2
17 14 4
17 15 8
17 16 1
18 0 1
18 1 4
18 2 8
18 3 7
18 4 7
18 5 3
18 6 3
18 7 2
18 8 8
18 9 4
18 10 1
18 11 1
18 12 2
18 13 8
18 14 3
18 15 1
18 16 3
18 17 8
19 0 4
19 1 6
19 2 4
19 3 7
19 4 2
19 5 6
19 6 8
19 7 7
19 8 5
19 9 1
19 10 7
19 11 2
19 12 2
19 13 7
19 14 6
19 15 3
19 16 5
19 17 4
19 18 7
20 0 8
20 1 1
20 2 2
20 3 2
20 4 3
20 5 7
20 6 1
20 7 2
20 8 2
20 9 1
20 10 4
20 11 2
20 12 4
20 13 8
20 14 5
20 15 7
20 16 7
20 17 2
20 18 4
20 19 3
21 0 3
21 1 4
21 2 1
21 3 5
21 4 7
21 5 5
21 6 6
21 7 3
21 8 1
21 9 8
21 10 1
21 11 3
21 12 6
21 13 5
21 14 5
21 15 3
21 16 8
21 17 2
21 18 3
21 19 6
21 20 3
22 0 8
22 1 1
22 2 1
22 3 5
22 4 2
22 5 1
22 6 8
22 7 3
22 8 2
22 9 2
22 10 1
22 11 3
22 12 8
22 13 7
22 14 6
22 15 3
22 16 3
22 17 4
22 18 8
22 19 5
22 20 7
22 21 6
23 0 7
23 1 3
23 2 7
23 3 5
23 4 7
23 5 4
23 6 2
23 7 4
23 8 7
23 9 3
23 10 7
23 11 6
23 12 7
23 13 5
23 14 1
23 15 5
23 16 7
23 17 5
23 18 3
23 19 4
23 20 5
23 21 4
23 22 5
24 0 5
24 1 1
24 2 8
24 3 5
24 4 2
24 5 6
24 6 1
24 7 6
24 8 6
24 9 8
24 10 4
24 11 8
24 12 4
24 13 8
24 14 1
24 15 4
24 16 4
24 17 6
24 18 2
24 19 5
24 20 2
24 21 1
24 22 1
24 23 8
25 0 1
25 1 1
25 2 1
25 3 5
25 4 3
25 5 7
25 6 2
25 7 8
25 8 3
25 9 6
25 10 4
25 11 7
25 12 2
25 13 2
25 14 5
25 15 1
25 16 8
25 17 5
25 18 3
25 19 7
25 20 8
25 21 2
25 22 5
25 23 1
25 24 4
26 0 2
26 1 7
26 2 5
26 3 5
26 4 3
26 5 4
26 6 6
26 7 3
26 8 4
26 9 6
26 10 3
26 11 4
26 12 7
26 13 3
26 14 8
26 15 6
26 16 6
26 17 5
26 18 6
26 19 2
26 20 5
26 21 6
26 22 5
26 23 7
26 24 1
26 25 6
27 0 4
27 1 5
27 2 7
27 3 2
27 4 6
27 5 3
27 6 3
27 7 7
27 8 1
27 9 1
27 10 4
27 11 4
27 12 1
27 13 8
27 14 5
27 15 7
27 16 3
27 17 5
27 18 1
27 19 8
27 20 8
27 21 3
27 22 3
27 23 1
27 24 6
27 25 8
27 26 8
28 0 7
28 1 3
28 2 2
28 3 6
28 4 3
28 5 1
28 6 3
28 7 6
28 8 6
28 9 3
28 10 3
28 11 1
28 12 5
28 13 7
28 14 5
28 15 5
28 16 8
28 17 4
28 18 7
28 19 4
28 20 1
28 21 8
28 22 3
28 23 1
28 24 7
28 25 1
28 26 3
28 27 2
29 0 2
29 1 7
29 2 4
29 3 8
29 4 4
29 5 2
29 6 5
29 7 2
29 8 4
29 9 7
29 10 2
29 11 7
29 12 2
29 13 7
29 14 6
29 15 1
29 16 5
29 17 5
29 18 5
29 19 3
29 20 6
29 21 4
29 22 7
29 23 5
29 24 8
29 25 8
29 26 7
29 27 1
29 28 2
30 0 3
30 1 6
30 2 2
30 3 2
30 4 7
30 5 1
30 6 7
30 7 6
30 8 6
30 9 5
30 10 3
30 11 6
30 12 1
30 13 5
30 14 1
30 15 3
30 16 1
30 17 4
30 18 2
30 19 7
30 20 3
30 21 2
30 22 1
30 23 7
30 24 5
30 25 2
30 26 4
30 27 1
30 28 5
30 29 1
31 0 1
31 1 4
31 2 3
31 3 8
31 4 8
31 5 1
31 6 5
31 7 3
31 8 4
31 9 7
31 10 2
31 11 6
31 12 8
31 13 7
31 14 8
31 15 2
31 16 1
31 17 2
31 18 5
31 19 2
31 20 1
31 21 3
31 22 8
31 23 6
31 24 7
31 25 5
31 26 2
31 27 8
31 28 8
31 29 8
31 30 4
32 0 5
32 1 6
32 2 6
32 3 2
32 4 7
32 5 4
32 6 6
32 7 8
32 8 6
32 9 4
32 10 2
32 11 4
32 12 5
32 13 5
32 14 1
32 15 6
32 16 1
32 17 2
32 18 1
32 19 6
32 20 1
32 21 8
32 22 7
32 23 8
32 24 5
32 25 5
32 26 7
32 27 5
32 28 6
32 29 2
32 30 8
32 31 5
33 0 2
33 1 6
33 2 3
33 3 3
33 4 7
33 5 1
33 6 6
33 7 3
33 8 4
33 9 7
33 10 6
33 11 2
33 12 3
33 13 5
33 14 8
33 15 5
33 16 4
33 17 8
33 18 8
33 19 3
33 20 4
33 21 5
33 22 5
33 23 6
33 24 1
33 25 3
33 26 2
33 27 1
33 28 6
33 29 7
33 30 5
33 31 7
33 32 6
34 0 8
34 1 1
34 2 2
34 3 1
34 4 7
34 5 4
34 6 3
34 7 4
34 8 4
34 9 1
34 10 3
34 11 7
34 12 3
34 13 8
34 14 2
34 15 7
34 16 1
34 17 2
34 18 7
34 19 6
34 20 1
34 21 2
34 22 4
34 23 5
34 24 6
34 25 7
34 26 3
34 27 5
34 28 3
34 29 8
34 30 7
34 31 5
34 32 4
34 33 2
35 0 3
35 1 7
35 2 2
35 3 8
35 4 3
35 5 7
35 6 6
35 7 7
35 8 2
35 9 7
35 10 4
35 11 1
35 12 3
35 13 8
35 14 6
35 15 1
35 16 3
35 17 3
35 18 5
35 19 5
35 20 7
35 21 3
35 22 3
35 23 8
35 24 7
35 25 7
35 26 4
35 27 6
35 28 8
35 29 2
35 30 1
35 31 3
35 32 6
35 33 2
35 34 7
36 0 3
36 1 4
36 2 2
36 3 3
36 4 8
36 5 6
36 6 8
36 7 2
36 8 6
36 9 6
36 10 7
36 11 4
36 12 7
36 13 4
36 14 3
36 15 8
36 16 3
36 17 6
36 18 8
36 19 6
36 20 2
36 21 2
36 22 4
36 23 6
36 24 5
36 25 8
36 26 4
36 27 8
36 28 2
36 29 2
36 30 6
36 31 1
36 32 1
36 33 7
36 34 7
36 35 7
37 0 4
37 1 3
37 2 8
37 3 2
37 4 1
37 5 3
37 6 7
37 7 7
37 8 8
37 9 3
37 10 3
37 11 3
37 12 1
37 13 7
37 14 5
37 15 7
37 16 1
37 17 1
37 18 6
37 19 8
37 20 7
37 21 7
37 22 2
37 23 1
37 24 3
37 25 8
37 26 1
37 27 6
37 28 5
37 29 4
37 30 5
37 31 5
37 32 7
37 33 6
37 34 8
37 35 6
37 36 8
38 0 2
38 1 3
38 2 8
38 3 8
38 4 7
38 5 4
38 6 7
38 7 2
38 8 7
38 9 4
38 10 7
38 11 7
38 12 1
38 13 6
38 14 8
38 15 5
38 16 1
38 17 7
38 18 4
38 19 3
38 20 3
38 21 7
38 22 5
38 23 8
38 24 6
38 25 4
38 26 7
38 27 1
38 28 8
38 29 6
38 30 8
38 31 3
38 32 6
38 33 7
38 34 8
38 35 7
38 36 3
38 37 8
39 0 4
39 1 3
39 2 1
39 3 8
39 4 7
39 5 8
39 6 6
39 7 2
39 8 4
39 9 3
39 10 7
39 11 3
39 12 2
39 13 8
39 14 6
39 15 7
39 16 2
39 17 2
39 18 4
39 19 1
39 20 8
39 21 4
39 22 8
39 23 3
39 24 3
39 25 1
39 26 8
39 27 4
39 28 4
39 29 3
39 30 4
39 31 1
39 32 2
39 33 4
39 34 2
39 35 2
39 36 7
39 37 1
39 38 7
